************************************************************************
file with basedata            : md340_.bas
initial value random generator: 432183909
************************************************************************
projects                      :  1
jobs (incl. supersource/sink ):  22
horizon                       :  143
RESOURCES
  - renewable                 :  2   R
  - nonrenewable              :  2   N
  - doubly constrained        :  0   D
************************************************************************
PROJECT INFORMATION:
pronr.  #jobs rel.date duedate tardcost  MPM-Time
    1     20      0       21       16       21
************************************************************************
PRECEDENCE RELATIONS:
jobnr.    #modes  #successors   successors
   1        1          3           2   3   4
   2        3          3           5   7   9
   3        3          3           5   8  10
   4        3          3           6   8  11
   5        3          2          13  20
   6        3          2          12  18
   7        3          3          10  15  18
   8        3          3          12  15  18
   9        3          3          11  14  17
  10        3          1          19
  11        3          1          20
  12        3          2          13  16
  13        3          1          21
  14        3          1          19
  15        3          3          16  17  19
  16        3          1          21
  17        3          1          21
  18        3          1          20
  19        3          1          22
  20        3          1          22
  21        3          1          22
  22        1          0        
************************************************************************
REQUESTS/DURATIONS:
jobnr. mode duration  R 1  R 2  N 1  N 2
------------------------------------------------------------------------
  1      1     0       0    0    0    0
  2      1     1       8    0    0    4
         2     1       9    0    0    3
         3     5       6    0    4    0
  3      1     1       0   10    4    0
         2     6       0   10    3    0
         3     9       4    0    0    9
  4      1     2       7    0    0    5
         2     3       0    7    0    3
         3     4       0    1    0    2
  5      1     4       0    9    0    8
         2     5       0    6    0    4
         3     5       5    0    0    4
  6      1     4       5    0    0    6
         2     5       4    0    8    0
         3     9       0    7    0    5
  7      1     1       4    0    7    0
         2     2       0    9    3    0
         3     3       1    0    0    3
  8      1     1       0    3    3    0
         2     3       0    1    2    0
         3     8       9    0    2    0
  9      1     3       0    6    0    1
         2     7       7    0    8    0
         3    10       0    2    7    0
 10      1     3       7    0    0    3
         2     5       7    0    2    0
         3     9       0    4    0    3
 11      1     1       2    0    0    5
         2     5       0    6    0    3
         3     7       2    0    0    3
 12      1     2       8    0    0    9
         2     3       0    6    0    8
         3     5       7    0    9    0
 13      1     3       6    0    0   10
         2     7       0    8    0    6
         3     9       0    3    0    6
 14      1     4       0    8    9    0
         2     8       0    8    0    3
         3     9       0    7    5    0
 15      1     8       9    0    0    6
         2     9       8    0    0    6
         3     9       0    4    0    5
 16      1     7       5    0    4    0
         2     7       3    0    0    3
         3     8       1    0    0    2
 17      1     2       0    7    5    0
         2     4       5    0    0    4
         3     7       0    7    0    3
 18      1     2       0    7    0    5
         2     2       1    0    0    6
         3     6       0    7    7    0
 19      1     2       0   10    9    0
         2     8       0    9    7    0
         3     9       3    0    5    0
 20      1     1       9    0    0    6
         2     8       0    3    0    5
         3     8       0    7    0    4
 21      1     3       3    0    0    5
         2     3       3    0    3    0
         3     4       2    0    3    0
 22      1     0       0    0    0    0
************************************************************************
RESOURCEAVAILABILITIES:
  R 1  R 2  N 1  N 2
   24   38   63   78
************************************************************************
MAXIMAL LAGS:
from  to  type  delay
    1   12   ES      0
    1    2   ES      0
    2   12   ES      0
    1    3   ES      0
    3   12   ES      0
    1    4   ES      0
    4   12   ES      0
    1    5   ES      0
    5   12   ES      0
    1    6   ES      0
    6   12   ES      0
    1    7   ES      0
    7   12   ES      0
    1    8   ES      0
    8   12   ES      0
    1    9   ES      0
    9   12   ES      0
    1   10   ES      0
   10   12   ES      0
    1   11   ES      0
   11   12   ES      0
    1   12   ES      0
    2    5   SS      6
    2    5   SE      0
    2    5   ES      3
    2    5   EE      6
    2    7   SS    -11
    2    7   SE     -3
    2    7   ES     -7
    2    7   EE     -8
    2    9   SS      9
    2    9   SE      2
    2    9   ES    -10
    2    9   EE      8
    3    5   SS    -10
    3    5   SE     10
    3    5   ES     -5
    3    5   EE     -6
    3    8   SS      9
    3    8   SE      8
    3    8   ES     -8
    3    8   EE     12
    3   10   SS     10
    3   10   SE     -7
    3   10   ES      4
    3   10   EE      4
    4    6   SS     11
    4    6   SE      7
    4    6   ES      8
    4    6   EE      4
    4    8   SS     12
    4    8   SE     -2
    4    8   ES      2
    4    8   EE     -8
    4   11   SS     -2
    4   11   SE     -3
    4   11   ES     -1
    4   11   EE      7
    5   13   SS      1
    5   13   SE    -11
    5   13   ES     10
    5   13   EE     12
    5   20   SS      9
    5   20   SE      0
    5   20   ES     -5
    5   20   EE     -6
    6   18   SS      7
    6   18   SE      7
    6   18   ES    -10
    6   18   EE     -8
    7   10   SS      6
    7   10   SE      8
    7   10   ES      3
    7   10   EE     -9
    7   15   SS    -12
    7   15   SE     -8
    7   15   ES     12
    7   15   EE     -3
    7   18   SS      5
    7   18   SE    -10
    7   18   ES      3
    7   18   EE     -9
    8   15   SS      2
    8   15   SE     -2
    8   15   ES     -7
    8   15   EE     -3
    8   18   SS     -7
    8   18   SE    -10
    8   18   ES     -4
    8   18   EE      6
    9   11   SS     -1
    9   11   SE     -1
    9   11   ES    -10
    9   11   EE    -10
    9   14   SS     -7
    9   14   SE     10
    9   14   ES     12
    9   14   EE      2
    9   17   SS     -4
    9   17   SE      3
    9   17   ES     -4
    9   17   EE     12
   10   19   SS      2
   10   19   SE      8
   10   19   ES     -8
   10   19   EE     -9
   11   20   SS      6
   11   20   SE      3
   11   20   ES    -11
   11   20   EE     -1
   12   13   SS     -3
   12   13   SE      0
   12   13   ES      1
   12   13   EE      7
   12   16   SS      9
   12   16   SE     -8
   12   16   ES      2
   12   16   EE     -1
   13   21   SS      4
   13   21   SE      7
   13   21   ES     -2
   13   21   EE     -1
   14   19   SS    -10
   14   19   SE      9
   14   19   ES      1
   14   19   EE      4
   15   16   SS      2
   15   16   SE     -4
   15   16   ES      9
   15   16   EE    -11
   15   17   SS      7
   15   17   SE      8
   15   17   ES    -11
   15   17   EE     11
   15   19   SS     -5
   15   19   SE     10
   15   19   ES      5
   15   19   EE    -12
   16   21   SS     -8
   16   21   SE     -9
   16   21   ES     -3
   16   21   EE      0
   17   21   SS     -7
   17   21   SE      6
   21   17   SE      0
   17   21   ES      0
   17   21   EE    -10
   18   20   SS     -5
   18   20   SE      0
   18   20   ES      2
   18   20   EE      9
   19   22   SS    -10
   19   22   SE     -1
   19   22   ES      2
   19   22   EE      2
   20   22   SS      8
   20   22   SE      5
   20   22   ES      2
   20   22   EE     -9
   21   22   SS    -10
   21   22   SE     -7
   21   22   ES     11
   21   22   EE     -9
************************************************************************
